NAME : mEgtspf.pid30655.gtsp.225485949.tour
COMMENT : Length = 225485949
COMMENT : Found by LKH [Keld Helsgaun] Thu Mar  6 00:05:10 2025
TYPE : TOUR
DIMENSION : 132
TOUR_SECTION
1
68
65
66
67
5
38
39
40
37
2
47
48
45
46
11
21
22
23
24
122
123
124
121
53
54
55
56
86
87
88
85
13
14
15
16
92
89
90
91
4
119
120
117
118
131
132
129
130
8
63
64
61
62
10
34
35
36
33
19
20
17
18
51
52
49
50
3
74
75
76
73
69
70
71
72
9
60
57
58
59
6
77
78
79
80
27
28
25
26
83
84
81
82
12
110
111
112
109
106
107
108
105
43
44
41
42
100
97
98
99
103
104
101
102
32
29
30
31
93
94
95
96
7
125
126
127
128
115
116
113
114
-1
EOF
